NAME : graph12
COMMENT : H Algorithm Solution by Oscar Riveros [http://twitter.com/maxtuno]
TYPE : TOUR
DIMENSION : 132
TOUR_SECTION
77
120
65
67
25
126
11
4
91
104
83
31
6
106
64
132
98
20
82
103
35
86
14
100
53
69
88
15
37
5
39
116
16
81
97
45
55
36
48
70
110
52
17
22
2
79
111
26
29
54
105
44
10
1
47
28
68
60
92
85
23
51
130
107
131
46
108
102
124
50
66
43
3
34
89
75
119
80
58
57
125
95
38
18
8
9
87
84
117
73
42
12
112
118
74
49
27
128
13
41
71
93
32
63
33
94
127
7
113
123
114
109
24
129
56
96
115
78
101
30
19
76
40
59
90
99
62
61
121
122
21
72
-1
EOF
